language ESSENCE' 1.0
$ loaded file: carseqdata/csplib-instance-46
letting numcars=200
letting numclasses=24
letting numoptions=5
letting optMax=[1, 2, 1, 2, 1]
letting windowSize=[2, 3, 3, 5, 5]
letting numberPerClass=[46, 2, 14, 2, 7, 4, 2, 6, 19, 1, 1, 5, 16, 3, 10, 21, 9, 6, 5, 3, 2, 1, 12, 3]
letting optionsRequired=[[0, 1, 0, 0, 0], [0, 0, 0, 1, 1], [0, 0, 0, 0, 1], [1, 1, 1, 1, 0], [0, 1, 0, 0, 1], [0, 1, 1, 1, 0], [1, 0, 1, 0, 1], [1, 1, 0, 1, 0], [0, 0, 0, 1, 0], [1, 1, 0, 1, 1], [0, 0, 1, 1, 1], [1, 0, 1, 0, 0], [0, 0, 1, 0, 0], [1, 1, 0, 0, 1], [1, 1, 0, 0, 0], [1, 0, 0, 0, 0], [0, 1, 1, 0, 0], [1, 1, 1, 0, 0], [1, 0, 0, 1, 0], [0, 0, 1, 1, 0], [1, 0, 1, 1, 0], [0, 1, 0, 1, 1], [0, 1, 0, 0, 0], [1, 0, 0, 0, 1]]
